TCS_Benchmarks/redos_fix/snort3_output_distinct_4065_4064_120_0.txt
([^>]+)([^>]+)
([^>]+)([sS][yY][sS][tT][eE][mM]\s+["']\s*[hH][tT][tT][pP]:\/\/)([^>]+)